NAME: instance_164
TYPE: TSP
DIMENSION: 20
EDGE_WEIGHT_TYPE: EUC_2D
NODE_COORD_SECTION
0 45.97 38.00
1 21.29 39.37
2 57.61 0.60
3 92.32 16.40
4 67.80 93.37
5 88.55 28.13
6 71.38 26.81
7 52.23 73.50
8 88.50 56.16
9 57.24 28.86
10 0.81 0.12
11 40.14 78.86
12 49.28 94.07
13 17.26 67.74
14 93.08 75.27
15 93.63 32.21
16 16.56 61.89
17 49.72 18.33
18 41.74 2.73
19 40.48 23.83
EOF
